27      4       
10      10      10      10      
0       0       0       0       0       4       2       3       4       7       
10      5       3       3       3       3       5       6       8       
5       5       5       7       6       3       6       9       11      
1       7       6       3       5       1       5       
7       10      7       4       10      3       9       11      12      
3       4       5       10      10      3       10      12      14      
1       10      9       8       4       3       9       10      14      
10      6       8       10      9       1       9       
3       9       8       10      6       3       13      16      17      
6       5       8       8       6       3       13      16      17      
7       7       7       6       10      3       13      14      16      
9       8       10      8       8       3       16      17      21      
9       8       10      6       6       3       15      18      19      
7       6       9       8       10      3       15      18      19      
8       4       8       10      10      3       20      21      26      
6       10      4       6       8       2       19      26      
6       7       10      5       7       1       18      
8       7       9       6       7       4       22      23      25      26      
7       10      9       5       9       1       20      
5       10      8       10      9       2       22      25      
9       8       8       9       10      1       22      
1       8       8       8       10      1       24      
7       7       6       10      10      1       24      
8       10      4       10      6       1       27      
8       10      10      10      4       1       27      
5       6       8       7       4       1       27      
0       0       0       0       0       0       
